29	4
3	21	13	15
0	0	0	0	0	11	5	4	2	6	9	10	11	13	14	23	24
1	1	16	0	0	1	3
1	0	16	7	0	2	16	19
4	3	16	0	0	4	7	8	16	22
7	0	0	8	4	3	7	18	26
1	3	16	0	0	1	29
2	0	16	0	15	2	20	27
10	3	5	13	0	2	12	18
8	0	16	4	0	1	27
6	0	5	0	11	1	22
1	0	16	0	11	1	29
6	1	16	0	0	1	15
7	0	5	13	15	2	17	26
7	0	5	1	11	1	18
6	3	0	6	0	2	26	28
1	2	5	13	0	1	25
1	0	16	0	15	1	20
10	3	5	0	15	1	28
8	0	16	13	0	2	21	22
5	0	16	0	15	1	28
6	0	5	13	15	2	26	28
2	0	16	12	0	1	29
1	0	0	0	11	1	29
5	2	5	0	15	2	26	28
6	2	5	0	15	2	26	28
8	3	0	8	0	1	27
1	3	5	12	0	1	29
3	3	5	13	4	1	29
0	0	0	0	0	0
